n_machines = 3;
n_resources = 5;
n_jobs = 100;
horizon = 577;
LB = 192;
n_jobs_per_resource = [20, 20, 20, 20, 20];
duration = [7, 9, 4, 5, 6, 5, 7, 4, 3, 7, 9, 6, 2, 2, 5, 8, 4, 8, 2, 4, 4, 9, 9, 2, 1, 6, 6, 9, 7, 9, 8, 6, 5, 3, 3, 9, 6, 5, 8, 8, 2, 8, 4, 9, 9, 1, 4, 7, 1, 2, 1, 5, 8, 4, 8, 4, 8, 8, 9, 1, 6, 7, 7, 4, 1, 4, 8, 9, 8, 9, 5, 8, 2, 5, 8, 7, 9, 6, 6, 4, 5, 6, 6, 8, 2, 9, 9, 4, 9, 6, 8, 5, 3, 5, 3, 9, 9, 8, 3, 4]